NAME 20_1_25_2
ROWS
 N COST
 L LK0
 L FK0
COLUMNS
 X0 COST 5.
 X0 LK0 -4.
 X0 FK0 0.
 X1 COST 3.
 X1 LK0 4.
 X1 FK0 1.
 X2 COST 0.
 X2 LK0 4.
 X2 FK0 0.
 X3 COST 4.
 X3 LK0 1.
 X3 FK0 1.
 X4 COST -10.
 X4 LK0 -1.
 X4 FK0 1.
 X5 COST 3.
 X5 LK0 1.
 X5 FK0 1.
 X6 COST -3.
 X6 LK0 -3.
 X6 FK0 0.
 X7 COST 2.
 X7 LK0 -4.
 X7 FK0 1.
 X8 COST -10.
 X8 LK0 1.
 X8 FK0 1.
 X9 COST -9.
 X9 LK0 -4.
 X9 FK0 0.
 X10 COST -6.
 X10 LK0 3.
 X10 FK0 1.
 X11 COST -1.
 X11 LK0 1.
 X11 FK0 0.
 X12 COST 9.
 X12 LK0 -2.
 X12 FK0 1.
 X13 COST 6.
 X13 LK0 2.
 X13 FK0 0.
 X14 COST 0.
 X14 LK0 1.
 X14 FK0 1.
 X15 COST -2.
 X15 LK0 5.
 X15 FK0 1.
 X16 COST 6.
 X16 LK0 -3.
 X16 FK0 1.
 X17 COST 3.
 X17 LK0 5.
 X17 FK0 0.
 X18 COST 1.
 X18 LK0 -2.
 X18 FK0 0.
 X19 COST -6.
 X19 LK0 -5.
 X19 FK0 1.
 Y0 COST 2.
 Y0 LK0 0.
 Y0 FK0 -5.
 Y1 COST 3.
 Y1 LK0 0.
 Y1 FK0 -5.
 Y2 COST 1.
 Y2 LK0 1.
 Y2 FK0 -4.
 Y3 COST 1.
 Y3 LK0 0.
 Y3 FK0 -1.
 Y4 COST 10.
 Y4 LK0 1.
 Y4 FK0 -4.
 Y5 COST 9.
 Y5 LK0 0.
 Y5 FK0 1.
 Y6 COST 7.
 Y6 LK0 1.
 Y6 FK0 -1.
 Y7 COST 0.
 Y7 LK0 1.
 Y7 FK0 3.
 Y8 COST 7.
 Y8 LK0 0.
 Y8 FK0 -1.
 Y9 COST 9.
 Y9 LK0 1.
 Y9 FK0 2.
 Y10 COST 5.
 Y10 LK0 0.
 Y10 FK0 5.
 Y11 COST 9.
 Y11 LK0 1.
 Y11 FK0 5.
 Y12 COST 0.
 Y12 LK0 0.
 Y12 FK0 2.
 Y13 COST 6.
 Y13 LK0 0.
 Y13 FK0 2.
 Y14 COST 10.
 Y14 LK0 1.
 Y14 FK0 4.
 Y15 COST 7.
 Y15 LK0 1.
 Y15 FK0 -3.
 Y16 COST 4.
 Y16 LK0 1.
 Y16 FK0 -4.
 Y17 COST 6.
 Y17 LK0 0.
 Y17 FK0 0.
 Y18 COST 1.
 Y18 LK0 1.
 Y18 FK0 4.
 Y19 COST 4.
 Y19 LK0 0.
 Y19 FK0 1.
RHS
 RHS LK0 3.
 RHS FK0 3.
BOUNDS
 UI BOUND	X0	1.
 LI BOUND	X0	0.
 UI BOUND	X1	1.
 LI BOUND	X1	0.
 UI BOUND	X2	1.
 LI BOUND	X2	0.
 UI BOUND	X3	1.
 LI BOUND	X3	0.
 UI BOUND	X4	1.
 LI BOUND	X4	0.
 UI BOUND	X5	1.
 LI BOUND	X5	0.
 UI BOUND	X6	1.
 LI BOUND	X6	0.
 UI BOUND	X7	1.
 LI BOUND	X7	0.
 UI BOUND	X8	1.
 LI BOUND	X8	0.
 UI BOUND	X9	1.
 LI BOUND	X9	0.
 UI BOUND	X10	1.
 LI BOUND	X10	0.
 UI BOUND	X11	1.
 LI BOUND	X11	0.
 UI BOUND	X12	1.
 LI BOUND	X12	0.
 UI BOUND	X13	1.
 LI BOUND	X13	0.
 UI BOUND	X14	1.
 LI BOUND	X14	0.
 UI BOUND	X15	1.
 LI BOUND	X15	0.
 UI BOUND	X16	1.
 LI BOUND	X16	0.
 UI BOUND	X17	1.
 LI BOUND	X17	0.
 UI BOUND	X18	1.
 LI BOUND	X18	0.
 UI BOUND	X19	1.
 LI BOUND	X19	0.
 UI BOUND	Y0	1.
 LI BOUND	Y0	0.
 UI BOUND	Y1	1.
 LI BOUND	Y1	0.
 UI BOUND	Y2	1.
 LI BOUND	Y2	0.
 UI BOUND	Y3	1.
 LI BOUND	Y3	0.
 UI BOUND	Y4	1.
 LI BOUND	Y4	0.
 UI BOUND	Y5	1.
 LI BOUND	Y5	0.
 UI BOUND	Y6	1.
 LI BOUND	Y6	0.
 UI BOUND	Y7	1.
 LI BOUND	Y7	0.
 UI BOUND	Y8	1.
 LI BOUND	Y8	0.
 UI BOUND	Y9	1.
 LI BOUND	Y9	0.
 UI BOUND	Y10	1.
 LI BOUND	Y10	0.
 UI BOUND	Y11	1.
 LI BOUND	Y11	0.
 UI BOUND	Y12	1.
 LI BOUND	Y12	0.
 UI BOUND	Y13	1.
 LI BOUND	Y13	0.
 UI BOUND	Y14	1.
 LI BOUND	Y14	0.
 UI BOUND	Y15	1.
 LI BOUND	Y15	0.
 UI BOUND	Y16	1.
 LI BOUND	Y16	0.
 UI BOUND	Y17	1.
 LI BOUND	Y17	0.
 UI BOUND	Y18	1.
 LI BOUND	Y18	0.
 UI BOUND	Y19	1.
 LI BOUND	Y19	0.
ENDATA
